p cnf 29 79
a 9 7 0
e 1 2 3 4 5 6 8 10 11 12 13 14 15 16 17 18 19 20 21 22 23 24 25 26 27 28 29 0
-2 -3 -4 0
2 3 -4 0
-2 3 4 0
2 -3 4 0
5 -1 0
5 -4 0
1 4 -5 0
6 5 0
6 1 0
-5 -1 -6 0
7 -8 -9 0
-7 8 -9 0
7 8 9 0
-7 -8 9 0
-9 -4 -10 0
9 4 -10 0
-9 4 10 0
9 -4 10 0
11 -2 0
11 10 0
2 -10 -11 0
11 12 -13 0
-11 -12 -13 0
11 -12 13 0
-11 12 13 0
-14 6 0
-14 13 0
-6 -13 14 0
-16 15 0
-16 -2 0
-15 2 16 0
16 -1 -17 0
-16 1 -17 0
16 1 17 0
-16 -1 17 0
19 9 0
19 18 0
-9 -18 -19 0
-17 -19 -20 0
17 19 -20 0
-17 19 20 0
17 -19 20 0
21 8 0
21 15 0
-8 -15 -21 0
-22 -18 0
-22 3 0
18 -3 22 0
-23 21 0
-23 22 0
-21 -22 23 0
24 -20 0
24 23 0
20 -23 -24 0
-25 3 0
-25 2 0
-3 -2 25 0
24 -25 -26 0
-24 25 -26 0
24 25 26 0
-24 -25 26 0
15 -8 -27 0
-15 8 -27 0
15 8 27 0
-15 -8 27 0
-28 26 0
-28 27 0
-26 -27 28 0
-29 -14 0
-29 -28 0
14 28 29 0
-28 -19 11 -2 0
4 -3 7 0
24 16 9 -5 8 23 15 -29 0
8 16 -22 -4 21 0
18 -24 -2 10 9 11 0
-1 -26 -28 4 24 17 0
23 -2 -6 -16 5 0
29 0
